0 57344 
1 57338 
2 55350 
3 54684 
4 54444 
5 53412 
6 53232 
7 53064 
8 52344 
9 52164 
10 51172 
11 50554 
12 50106 
13 49858 
14 49370 
15 49278 
16 49072 
17 49008 
18 48584 
19 48024 
20 47856 
21 47790 
22 47140 
23 47000 
24 46340 
25 46312 
26 45720 
27 45572 
28 44596 
29 43896 
30 40380 
31 40324 
32 40300 
33 40048 
34 39940 
35 39808 
36 39600 
37 39340 
38 38956 
39 38800 
40 38762 
41 38138 
42 37602 
43 37386 
44 37300 
45 36778 
46 36664 
47 36300 
48 36182 
49 36124 
50 35900 
51 35768 
52 32992 
53 32976 
54 32976 

